c random clauses
p cnf 11 64
-11 -10 -8 -7 1 4 5 9 0
-11 -10 -8 -5 -2 1 6 9 0
-11 -10 -7 -6 -5 -3 4 9 0
-11 -10 -7 -6 -5 4 8 9 0
-11 -10 -7 -6 -4 2 5 9 0
-11 -10 -5 -4 1 3 7 9 0
-11 -10 -4 -3 2 6 7 8 0
-11 -10 -2 -1 3 5 6 8 0
-11 -10 1 2 3 5 7 8 0
-11 -9 -8 -5 -4 -1 2 10 0
-11 -9 -7 -4 -3 -2 5 6 0
-11 -9 -5 -4 -3 1 7 10 0
-11 -9 -4 -3 1 5 8 10 0
-11 -8 -5 -4 1 6 9 10 0
-11 -7 1 2 5 8 9 10 0
-11 -6 -4 -2 1 3 7 10 0
-11 -6 -3 1 2 4 7 10 0
-11 -6 -3 4 7 8 9 10 0
-11 -5 -2 3 4 8 9 10 0
-11 -2 -1 4 5 6 9 10 0
-11 -2 1 3 4 6 9 10 0
-10 -9 -8 -5 -4 -3 -2 6 0
-10 -9 -8 -5 -4 -1 6 7 0
-10 -9 -8 -4 -1 3 5 6 0
-10 -9 -7 -6 -5 -3 1 2 0
-10 -9 -7 -4 -3 2 8 11 0
-10 -9 -5 -1 2 6 8 11 0
-10 -9 -5 -1 3 4 8 11 0
-10 -9 -5 1 2 3 7 8 0
-10 -9 -5 1 3 6 7 8 0
-10 -9 1 2 3 4 8 11 0
-10 -8 -7 -4 -2 1 6 11 0
-10 -8 -7 -1 3 4 5 6 0
-10 -8 -6 -4 -3 1 2 9 0
-10 -8 -1 2 3 4 7 9 0
-10 -7 -6 -2 -1 8 9 11 0
-10 -7 -6 -1 3 4 5 9 0
-10 -7 -5 -3 1 6 8 9 0
-10 -7 -5 -2 1 4 6 8 0
-10 -7 -5 1 3 4 6 9 0
-10 -7 -3 -2 -1 5 6 9 0
-10 -7 2 3 4 5 9 11 0
-10 -6 1 2 3 4 5 8 0
-9 -8 -7 -5 -4 1 3 10 0
-9 -8 -6 -1 3 5 10 11 0
-9 -8 -4 -1 3 7 10 11 0
-9 -8 -1 2 3 4 5 7 0
-9 -8 -1 3 4 5 7 11 0
-9 -7 -6 -5 -4 -2 -1 8 0
-9 -7 -6 -4 -1 3 8 10 0
-9 -7 -5 -4 -1 2 3 11 0
-9 -7 -5 -3 1 8 10 11 0
-9 -7 -5 -1 2 3 4 6 0
-9 -6 -4 -2 5 8 10 11 0
-9 -6 -2 -1 4 7 8 10 0
-9 -5 -4 -3 -1 2 7 10 0
-9 -1 4 5 6 7 10 11 0
-8 -7 -3 2 4 5 9 11 0
-8 -6 -3 -2 1 5 10 11 0
-8 -3 -2 1 5 7 10 11 0
-8 -3 -1 4 5 6 10 11 0
-6 -4 -2 -1 3 7 9 11 0
-6 -4 1 5 7 8 9 11 0
-5 -2 1 3 7 8 9 11 0
